
Gurobi 9.5.2 (mac64[arm]) logging started Wed Apr 19 12:20:37 2023

Set parameter LogFile to value "Java/output/pure_mip/scenario_seed_0_nJob_20_machineCount_1/mip_increment_5/log.txt"
Gurobi Optimizer version 9.5.2 build v9.5.2rc0 (mac64[arm])
Thread count: 8 physical cores, 8 logical processors, using up to 8 threads
Optimize a model with 328 rows, 2331 columns and 10332 nonzeros
Model fingerprint: 0xde36a976
Variable types: 0 continuous, 2331 integer (2331 binary)
Coefficient statistics:
  Matrix range     [1e+00, 2e+02]
  Objective range  [1e+00, 3e+06]
  Bounds range     [1e+00, 1e+00]
  RHS range        [1e+00, 1e+00]
Presolve removed 18 rows and 345 columns
Presolve time: 0.01s
Presolved: 310 rows, 1986 columns, 8747 nonzeros
Variable types: 0 continuous, 1986 integer (1986 binary)

Root relaxation: objective 3.986796e+04, 1592 iterations, 0.02 seconds (0.04 work units)

    Nodes    |    Current Node    |     Objective Bounds      |     Work
 Expl Unexpl |  Obj  Depth IntInf | Incumbent    BestBd   Gap | It/Node Time

     0     0 39867.9582    0  117          - 39867.9582      -     -    0s
H    0     0                    9794325.0000 39867.9582   100%     -    0s
H    0     0                    7249135.0000 39867.9582  99.5%     -    0s
H    0     0                    7249110.0000 39867.9582  99.5%     -    0s
H    0     0                    7043250.0000 60052.5980  99.1%     -    0s
H    0     0                    5731275.0000 60052.5980  99.0%     -    0s
     0     0 60052.5980    0  194 5731275.00 60052.5980  99.0%     -    0s
H    0     0                    5730205.0000 60052.5980  99.0%     -    0s
     0     0 61042.7667    0  211 5730205.00 61042.7667  98.9%     -    0s
     0     0 61042.7667    0  209 5730205.00 61042.7667  98.9%     -    0s
H    0     0                    5396115.0000 71038.6852  98.7%     -    0s
     0     0 71038.6852    0  236 5396115.00 71038.6852  98.7%     -    0s
H    0     0                    1651960.0000 71038.6852  95.7%     -    0s
H    0     0                    1475610.0000 71038.6852  95.2%     -    0s
     0     0 72724.4680    0  229 1475610.00 72724.4680  95.1%     -    0s
     0     0 72743.6122    0  227 1475610.00 72743.6122  95.1%     -    0s
     0     0 72743.6122    0  224 1475610.00 72743.6122  95.1%     -    0s
H    0     0                    776320.00000 95664.7681  87.7%     -    0s
H    0     0                    760480.00000 95664.7681  87.4%     -    0s
     0     0 95664.7681    0  243 760480.000 95664.7681  87.4%     -    0s
H    0     0                    760390.00000 95664.7681  87.4%     -    0s
     0     0 98709.4726    0  248 760390.000 98709.4726  87.0%     -    0s
     0     0 99070.0901    0  251 760390.000 99070.0901  87.0%     -    0s
     0     0 99070.0919    0  256 760390.000 99070.0919  87.0%     -    0s
     0     0 107606.849    0  252 760390.000 107606.849  85.8%     -    0s
     0     0 108905.938    0  230 760390.000 108905.938  85.7%     -    0s
     0     0 109032.518    0  239 760390.000 109032.518  85.7%     -    0s
     0     0 109034.795    0  245 760390.000 109034.795  85.7%     -    0s
     0     0 119302.321    0  214 760390.000 119302.321  84.3%     -    0s
H    0     0                    760380.00000 119302.321  84.3%     -    0s
     0     0 121829.864    0  261 760380.000 121829.864  84.0%     -    0s
     0     0 122122.334    0  252 760380.000 122122.334  83.9%     -    0s
     0     0 122135.537    0  245 760380.000 122135.537  83.9%     -    0s
     0     0 123455.654    0  261 760380.000 123455.654  83.8%     -    0s
H    0     0                    701920.00000 123455.654  82.4%     -    0s
     0     0 124285.011    0  245 701920.000 124285.011  82.3%     -    0s
     0     0 124311.172    0  254 701920.000 124311.172  82.3%     -    0s
     0     0 125954.985    0  232 701920.000 125954.985  82.1%     -    0s
H    0     0                    651400.00000 125954.985  80.7%     -    0s
H    0     0                    647330.00000 125954.985  80.5%     -    0s
     0     0 126037.183    0  239 647330.000 126037.183  80.5%     -    0s
     0     0 126096.578    0  244 647330.000 126096.578  80.5%     -    0s
     0     0 127968.889    0  258 647330.000 127968.889  80.2%     -    0s
H    0     0                    640720.00000 127968.889  80.0%     -    0s
     0     0 128429.440    0  258 640720.000 128429.440  80.0%     -    0s
     0     0 128430.271    0  266 640720.000 128430.271  80.0%     -    0s
     0     0 128522.864    0  254 640720.000 128522.864  79.9%     -    0s
     0     0 128522.864    0  240 640720.000 128522.864  79.9%     -    0s
H    0     0                    204985.00000 128522.864  37.3%     -    0s
H    0     0                    204900.00000 128789.737  37.1%     -    0s
H    0     0                    180190.00000 128789.737  28.5%     -    0s
     0     0 128789.737    0  121 180190.000 128789.737  28.5%     -    0s
H    0     0                    179805.00000 128789.737  28.4%     -    0s
H    0     0                    179635.00000 128789.737  28.3%     -    0s
H    0     0                    172590.00000 128789.737  25.4%     -    0s
H    0     0                    172575.00000 128789.737  25.4%     -    1s
     0     0 128789.737    0  203 172575.000 128789.737  25.4%     -    1s
H    0     0                    170335.00000 128789.737  24.4%     -    1s
     0     0 128789.737    0  198 170335.000 128789.737  24.4%     -    1s
     0     0 128789.737    0  206 170335.000 128789.737  24.4%     -    1s
     0     0 128789.737    0  213 170335.000 128789.737  24.4%     -    1s
     0     0 128961.904    0  189 170335.000 128961.904  24.3%     -    1s
     0     0 128971.486    0  214 170335.000 128971.486  24.3%     -    1s
     0     0 129037.372    0  164 170335.000 129037.372  24.2%     -    1s
     0     0 129037.852    0  165 170335.000 129037.852  24.2%     -    1s
     0     0 130071.920    0  203 170335.000 130071.920  23.6%     -    1s
H    0     0                    153035.00000 130071.920  15.0%     -    1s
     0     0 130135.833    0  142 153035.000 130135.833  15.0%     -    1s
     0     0 130182.567    0  204 153035.000 130182.567  14.9%     -    1s
     0     0 130182.567    0  183 153035.000 130182.567  14.9%     -    1s
H    0     0                    152975.00000 130941.458  14.4%     -    1s
     0     2 130941.458    0  182 152975.000 130941.458  14.4%     -    1s
*   16    11               4    139825.00000 139550.833  0.20%   201    1s
*   17    11               4    139820.00000 139550.833  0.19%   191    1s

Cutting planes:
  Cover: 3
  Clique: 47
  MIR: 35
  StrongCG: 13
  GUB cover: 55
  Zero half: 14
  RLT: 1

Explored 28 nodes (27321 simplex iterations) in 1.34 seconds (1.90 work units)
Thread count was 8 (of 8 available processors)

Solution count 10: 139820 139825 152975 ... 180190

Optimal solution found (tolerance 1.00e-04)
Best objective 1.398200000000e+05, best bound 1.398200000000e+05, gap 0.0000%
